
Log started (V12.8.0.0) Wed Aug 29 20:15:33 2018

New value for time limit in seconds: 500
CPXPARAM_TimeLimit                               500
CPXPARAM_Emphasis_Numerical                      1
CPXPARAM_Parallel                                -1
CPXPARAM_Benders_Strategy                        3
CPXPARAM_MIP_Tolerances_Integrality              9.9999999999999995e-08
CPXPARAM_MIP_Pool_AbsGap                         0
Tried aggregator 4 times.
MIP Presolve eliminated 10068 rows and 4608 columns.
Aggregator did 1835 substitutions.
Reduced MIP has 4271 rows, 4578 columns, and 17007 nonzeros.
Reduced MIP has 22 binaries, 0 generals, 0 SOSs, and 0 indicators.
Presolve time = 0.03 sec. (23.50 ticks)
Found incumbent of value 0.971056 after 0.06 sec. (42.83 ticks)
Tried aggregator 1 time.
Reduced MIP has 4271 rows, 4578 columns, and 17007 nonzeros.
Reduced MIP has 22 binaries, 0 generals, 0 SOSs, and 0 indicators.
Presolve time = 0.00 sec. (4.58 ticks)

        Nodes                                         Cuts/
   Node  Left     Objective  IInf  Best Integer    Best Bound    ItCnt     Gap

      0     0      110.0000                       Benders: 10        0         
      0     0      110.0000                        Benders: 1        1         
      0     0      110.0000                        Benders: 1        3         
      0     0      110.0000                        Benders: 1        5         
      0     0      110.0000                        Benders: 1        6         
      0     0      110.0000                        Benders: 2        7         
      0     0      110.0000                        Benders: 1        9         
      0     0      110.0000                        Benders: 1       10         
      0     0      110.0000                        Benders: 2       11         
      0     0      110.0000                        Benders: 2       12         
      0     0      110.0000                        Benders: 2       13         
Tried aggregator 1 time.
MIP Presolve modified 276 coefficients.
Reduced MIP has 25 rows, 32 columns, and 223 nonzeros.
Reduced MIP has 22 binaries, 0 generals, 0 SOSs, and 0 indicators.
Presolve time = 0.00 sec. (0.05 ticks)
Probing time = 0.00 sec. (0.01 ticks)
Tried aggregator 1 time.
Reduced MIP has 25 rows, 32 columns, and 223 nonzeros.
Reduced MIP has 22 binaries, 0 generals, 0 SOSs, and 0 indicators.
Presolve time = 0.00 sec. (0.05 ticks)
Probing time = 0.00 sec. (0.01 ticks)
MIP emphasis: balance optimality and feasibility.
MIP search method: dynamic search.
Parallel mode: opportunistic, using up to 8 threads.
Root relaxation solution time = 0.00 sec. (0.07 ticks)
*     0+    0                            0.9711      110.0000              --- 
      0     0      110.0000     6        0.9711      110.0000       29     --- 
      0     0      110.0000     1        0.9711      Cuts: 11       35     --- 
      0     0      110.0000     6        0.9711       Cuts: 9       41     --- 
      0     0      110.0000     4        0.9711       Cuts: 2       45     --- 
*     0+    0                           12.0941      110.0000           809.53%

Repeating presolve.
Tried aggregator 1 time.
Reduced MIP has 25 rows, 32 columns, and 223 nonzeros.
Reduced MIP has 22 binaries, 0 generals, 0 SOSs, and 0 indicators.
Presolve time = 0.00 sec. (0.05 ticks)
Probing time = 0.00 sec. (0.01 ticks)
Tried aggregator 1 time.
Reduced MIP has 25 rows, 32 columns, and 223 nonzeros.
Reduced MIP has 22 binaries, 0 generals, 0 SOSs, and 0 indicators.
Presolve time = 0.00 sec. (0.05 ticks)
Represolve time = 0.00 sec. (0.89 ticks)
Probing time = 0.00 sec. (0.01 ticks)
MIP emphasis: balance optimality and feasibility.
MIP search method: dynamic search.
Parallel mode: opportunistic, using up to 8 threads.
Root relaxation solution time = 0.00 sec. (0.36 ticks)
*     0+    0                           12.0941      110.0000           809.53%
      0     0      110.0000     7       12.0941      110.0000       84  809.53%
      0     0      110.0000     6       12.0941       Cuts: 6       94  809.53%
      0     0      110.0000     2       12.0941       Cuts: 9      104  809.53%
      0     0      110.0000     5       12.0941    MIRcuts: 2      106  809.53%
      0     2      110.0000     5       12.0941     Cuts: 122      106  809.53%
Elapsed time = 0.80 sec. (655.98 ticks, tree = 0.01 MB, solutions = 1)
*    19+    2                           49.3560      109.7776           122.42%
     79    40       59.5415     2       49.3560      109.2466      322  121.34%
*   173+   76                           53.4551      109.2466           104.37%
    254    95        cutoff             54.1027      109.2466     1308  101.92%
*   487+  144                           54.1027       90.0317            66.41%
    552   159       57.1466     0       54.1027       85.1436     3167   57.37%
   1117   238       58.1576     3       54.1027       60.1227     5187   11.13%
   2183   280       58.5578     8       54.1027       56.1491     9383    3.78%

Benders cuts applied:  1364
Mixed integer rounding cuts applied:  9
Gomory fractional cuts applied:  4

Root node processing (before b&c):
  Real time             =    0.69 sec. (655.51 ticks)
Parallel b&c, 8 threads:
  Real time             =    1.68 sec. (1292.95 ticks)
  Sync time (average)   =    0.03 sec.
  Wait time (average)   =    0.01 sec.
                          ------------
Total (root+branch&cut) =    2.38 sec. (1948.46 ticks)

Solution pool: 1 solution saved.

MIP - Integer optimal solution:  Objective =  5.4102697449e+01
Solution time =    2.38 sec.  Iterations = 12117  Nodes = 2354 (1)
Deterministic time = 1949.31 ticks  (819.50 ticks/sec)


Solution pool written to file 'lsgcp_a9_b0_n2.sol'.
Current MIP best bound =  5.4102697449e+01 (gap = 7.10543e-15, 0.00%)
